
<<< setup


<<< generate

CPXPARAM_TimeLimit                               2
Tried aggregator 1 time.
MIP Presolve eliminated 29 rows and 29 columns.
Reduced MIP has 961 rows, 1771 columns, and 5254 nonzeros.
Reduced MIP has 900 binaries, 871 generals, 0 SOSs, and 0 indicators.
Presolve time = 0,00 sec. (2,90 ticks)
Probing fixed 29 vars, tightened 0 bounds.
Probing time = 0,02 sec. (10,57 ticks)
Cover probing fixed 0 vars, tightened 841 bounds.
Tried aggregator 1 time.
MIP Presolve eliminated 31 rows and 59 columns.
MIP Presolve modified 842 coefficients.
Reduced MIP has 930 rows, 1712 columns, and 5106 nonzeros.
Reduced MIP has 871 binaries, 841 generals, 0 SOSs, and 0 indicators.
Presolve time = 0,01 sec. (5,06 ticks)
Probing time = 0,01 sec. (3,17 ticks)
Clique table members: 60.
MIP emphasis: balance optimality and feasibility.
MIP search method: dynamic search.
Parallel mode: deterministic, using up to 4 threads.
Root relaxation solution time = 0,01 sec. (16,70 ticks)

        Nodes                                         Cuts/
   Node  Left     Objective  IInf  Best Integer    Best Bound    ItCnt     Gap

*     0+    0                           96,6545        0,0000           100,00%
      0     0       40,9813    65       96,6545       40,9813      529   57,60%
      0     0       44,8477    95       96,6545      Cuts: 55      738   53,60%
      0     0       45,9656   128       96,6545      Cuts: 41     1001   52,44%
      0     0       46,1793   131       96,6545      Cuts: 22     1068   52,22%
      0     0       46,1840   137       96,6545      Cuts: 10     1089   52,22%
      0     0       46,3525   137       96,6545       Cuts: 2     1093   52,04%
*     0+    0                           66,6122       46,3525            30,41%
*     0+    0                           65,4733       46,3525            29,20%
*     0+    0                           47,3000       46,3525             2,00%

Repeating presolve.
Tried aggregator 2 times.
MIP Presolve eliminated 620 rows and 1262 columns.
MIP Presolve modified 18 coefficients.
Aggregator did 3 substitutions.
Reduced MIP has 307 rows, 447 columns, and 1340 nonzeros.
Reduced MIP has 226 binaries, 221 generals, 0 SOSs, and 0 indicators.
Presolve time = 0,00 sec. (1,69 ticks)
Probing fixed 2 vars, tightened 6 bounds.
Probing time = 0,00 sec. (0,88 ticks)
Cover probing fixed 0 vars, tightened 136 bounds.
Tried aggregator 1 time.
MIP Presolve eliminated 2 rows and 4 columns.
MIP Presolve modified 140 coefficients.
Reduced MIP has 305 rows, 443 columns, and 1328 nonzeros.
Reduced MIP has 224 binaries, 219 generals, 0 SOSs, and 0 indicators.
Presolve time = 0,00 sec. (0,93 ticks)
Represolve time = 0,01 sec. (6,30 ticks)
Probing fixed 0 vars, tightened 2 bounds.
Probing time = 0,00 sec. (0,85 ticks)
Cover probing fixed 0 vars, tightened 41 bounds.
Clique table members: 84.
MIP emphasis: balance optimality and feasibility.
MIP search method: dynamic search.
Parallel mode: deterministic, using up to 4 threads.
Root relaxation solution time = 0,00 sec. (4,52 ticks)

        Nodes                                         Cuts/
   Node  Left     Objective  IInf  Best Integer    Best Bound    ItCnt     Gap

*     0+    0                           47,3000       46,3525             2,00%
      0     0       46,3745   129       47,3000       46,3745     1419    1,96%
      0     0       46,5205   131       47,3000      Cuts: 45     1519    1,65%
      0     0       46,6105   138       47,3000      Cuts: 50     1640    1,46%
      0     0       46,6477   142       47,3000      Cuts: 34     1718    1,38%
      0     0       46,6949   144       47,3000      Cuts: 36     1792    1,28%
      0     0       46,7305   153       47,3000      Cuts: 30     1885    1,20%

Repeating presolve.
Tried aggregator 2 times.
MIP Presolve eliminated 62 rows and 126 columns.
MIP Presolve modified 42 coefficients.
Aggregator did 7 substitutions.
Reduced MIP has 236 rows, 310 columns, and 962 nonzeros.
Reduced MIP has 154 binaries, 156 generals, 0 SOSs, and 0 indicators.
Presolve time = 0,00 sec. (0,95 ticks)
Probing changed sense of 1 constraints.
Probing time = 0,00 sec. (0,41 ticks)
Cover probing fixed 0 vars, tightened 18 bounds.
Tried aggregator 1 time.
MIP Presolve modified 19 coefficients.
Reduced MIP has 236 rows, 310 columns, and 962 nonzeros.
Reduced MIP has 154 binaries, 156 generals, 0 SOSs, and 0 indicators.
Presolve time = 0,00 sec. (0,64 ticks)
Represolve time = 0,01 sec. (4,15 ticks)
Probing fixed 0 vars, tightened 7 bounds.
Probing time = 0,00 sec. (0,41 ticks)
Cover probing fixed 0 vars, tightened 16 bounds.
Clique table members: 67.
MIP emphasis: balance optimality and feasibility.
MIP search method: dynamic search.
Parallel mode: deterministic, using up to 4 threads.
Root relaxation solution time = 0,01 sec. (8,55 ticks)

        Nodes                                         Cuts/
   Node  Left     Objective  IInf  Best Integer    Best Bound    ItCnt     Gap

*     0+    0                           47,3000       46,7305             1,20%
      0     0       46,7305   152       47,3000       46,7305     2303    1,20%
      0     0       46,7382   154       47,3000      Cuts: 44     2356    1,19%
      0     0       46,7583   150       47,3000      Cuts: 51     2429    1,15%
      0     0       46,7713   153       47,3000      Cuts: 17     2483    1,12%
      0     0       46,7729   158       47,3000      Cuts: 25     2522    1,11%
      0     0       46,7765   152       47,3000      Cuts: 13     2564    1,11%
      0     0       46,7827   151       47,3000      Cuts: 26     2601    1,09%
      0     0       46,7866   151       47,3000      Cuts: 17     2620    1,09%
      0     0       46,7881   152       47,3000       Cuts: 3     2628    1,08%
      0     2       46,7881   144       47,3000       46,7881     2628    1,08%
Elapsed time = 1,03 sec. (514,15 ticks, tree = 0,01 MB, solutions = 4)
*   214+   43                           47,2805       46,8180             0,98%

Cover cuts applied:  5
Implied bound cuts applied:  52
Flow cuts applied:  47
Mixed integer rounding cuts applied:  31
Zero-half cuts applied:  5
Lift and project cuts applied:  21
Gomory fractional cuts applied:  5

Root node processing (before b&c):
  Real time             =    1,03 sec. (513,97 ticks)
Parallel b&c, 4 threads:
  Real time             =    0,13 sec. (62,87 ticks)
  Sync time (average)   =    0,03 sec.
  Wait time (average)   =    0,00 sec.
                          ------------
Total (root+branch&cut) =    1,16 sec. (576,84 ticks)

<<< solve


OBJECTIVE: 47.28053
12/18/2018 23:57:10 999
solving time ~= 1167.643066406
Done
 [[0 0 0 0 0 6 0 0 0 0 0 0 0 0 0 0 0 0 0 0 0 0 0 0 0 0 0 0 0 0]
         [0 0 0 9 0 0 0 0 0 0 0 0 0 0 0 0 0 0 0 0 0 0 0 0 0 0 0 0 0 0]
         [7 0 0 0 0 0 0 0 0 0 0 0 0 0 0 0 0 0 0 0 0 0 0 0 0 0 0 0 0 0]
         [0 0 8 0 0 0 0 0 0 0 0 0 0 0 0 0 0 0 0 0 0 0 0 0 0 0 0 0 0 0]
         [0 10 0 0 0 0 0 0 0 0 0 0 0 0 0 0 0 0 0 0 0 0 0 0 0 0 0 0 0 0]
         [0 0 0 0 0 0 0 5 0 0 0 0 0 0 0 0 0 0 0 0 0 0 0 0 0 0 0 0 0 0]
         [0 0 0 0 0 0 0 0 0 1 0 0 0 0 0 0 0 0 0 0 0 0 0 0 0 0 0 0 0 0]
         [0 0 0 0 0 0 0 0 0 0 0 4 0 0 0 0 0 0 0 0 0 0 0 0 0 0 0 0 0 0]
         [0 0 0 0 0 0 2 0 0 0 0 0 0 0 0 0 0 0 0 0 0 0 0 0 0 0 0 0 0 0]
         [0 0 0 0 0 0 0 0 0 0 0 0 0 30 0 0 0 0 0 0 0 0 0 0 0 0 0 0 0 0]
         [0 0 0 0 11 0 0 0 0 0 0 0 0 0 0 0 0 0 0 0 0 0 0 0 0 0 0 0 0 0]
         [0 0 0 0 0 0 0 0 3 0 0 0 0 0 0 0 0 0 0 0 0 0 0 0 0 0 0 0 0 0]
         [0 0 0 0 0 0 0 0 0 0 0 0 0 0 0 0 0 27 0 0 0 0 0 0 0 0 0 0 0 0]
         [0 0 0 0 0 0 0 0 0 0 0 0 0 0 0 29 0 0 0 0 0 0 0 0 0 0 0 0 0 0]
         [0 0 0 0 0 0 0 0 0 0 12 0 0 0 0 0 0 0 0 0 0 0 0 0 0 0 0 0 0 0]
         [0 0 0 0 0 0 0 0 0 0 0 0 28 0 0 0 0 0 0 0 0 0 0 0 0 0 0 0 0 0]
         [0 0 0 0 0 0 0 0 0 0 0 0 0 0 13 0 0 0 0 0 0 0 0 0 0 0 0 0 0 0]
         [0 0 0 0 0 0 0 0 0 0 0 0 0 0 0 0 0 0 0 0 26 0 0 0 0 0 0 0 0 0]
         [0 0 0 0 0 0 0 0 0 0 0 0 0 0 0 0 14 0 0 0 0 0 0 0 0 0 0 0 0 0]
         [0 0 0 0 0 0 0 0 0 0 0 0 0 0 0 0 0 0 0 0 0 16 0 0 0 0 0 0 0 0]
         [0 0 0 0 0 0 0 0 0 0 0 0 0 0 0 0 0 0 0 0 0 0 0 25 0 0 0 0 0 0]
         [0 0 0 0 0 0 0 0 0 0 0 0 0 0 0 0 0 0 15 0 0 0 0 0 0 0 0 0 0 0]
         [0 0 0 0 0 0 0 0 0 0 0 0 0 0 0 0 0 0 0 17 0 0 0 0 0 0 0 0 0 0]
         [0 0 0 0 0 0 0 0 0 0 0 0 0 0 0 0 0 0 0 0 0 0 0 0 0 24 0 0 0 0]
         [0 0 0 0 0 0 0 0 0 0 0 0 0 0 0 0 0 0 0 0 0 0 18 0 0 0 0 0 0 0]
         [0 0 0 0 0 0 0 0 0 0 0 0 0 0 0 0 0 0 0 0 0 0 0 0 0 0 0 0 23 0]
         [0 0 0 0 0 0 0 0 0 0 0 0 0 0 0 0 0 0 0 0 0 0 0 0 19 0 0 0 0 0]
         [0 0 0 0 0 0 0 0 0 0 0 0 0 0 0 0 0 0 0 0 0 0 0 0 0 0 20 0 0 0]
         [0 0 0 0 0 0 0 0 0 0 0 0 0 0 0 0 0 0 0 0 0 0 0 0 0 0 0 0 0 22]
         [0 0 0 0 0 0 0 0 0 0 0 0 0 0 0 0 0 0 0 0 0 0 0 0 0 0 0 21 0 0]]

<<< post process


<<< done

